<instance format="XCSP3" type="CSP">
  <variables>
    <var id="x0"> 1..3 15 </var>
    <var id="x1"> 1 8 10 13 </var>
    <var id="x2"> 0 1 3 10 15 </var>
    <var id="x3"> 0 1 15 </var>
    <var id="x4"> 1..3 8 10 13 </var>
    <var id="x5"> 1..3 10 15 </var>
    <var id="x6"> 0..3 10 13 </var>
    <var id="x7"> 1 8 10 15 </var>
    <var id="x8"> 0 8 9 15 </var>
    <var id="x9"> 7 9 14 15 </var>
    <var id="x10"> 4 9 </var>
    <var id="x11"> 7 8 12 </var>
    <var id="x12"> 0 8 9 12 15 </var>
    <var id="x13"> 0 9 12 15 </var>
    <var id="x14"> 0 4 9 </var>
    <var id="x15"> 7 8 12 15 </var>
    <var id="x16"> 6 8..10 17 </var>
    <var id="x17"> 5 8..10 17 </var>
    <var id="x18"> 1 9 10 </var>
    <var id="x19"> 1 5 </var>
    <var id="x20"> 2 6 8 9 </var>
    <var id="x21"> 6 8 10 </var>
    <var id="x22"> 1 2 6 10 17 </var>
    <var id="x23"> 1 5 8 10 </var>
    <var id="x24"> 3 4 10 12 17 </var>
    <var id="x25"> 3 4 10 </var>
    <var id="x26"> 10 12 15 17 </var>
    <var id="x27"> 1 12 14 15 </var>
    <var id="x28"> 4 12 14 </var>
    <var id="x29"> 4 10 14 </var>
    <var id="x30"> 1 4 17 </var>
    <var id="x31"> 1 3 10 15 17 </var>
    <var id="x32"> 3 6 9 </var>
    <var id="x33"> 6 8 10 </var>
    <var id="x34"> 6 8 10 </var>
    <var id="x35"> 3..6 9..11 </var>
    <var id="x36"> 5 8..10 </var>
    <var id="x37"> 4 6 8 9 11 </var>
    <var id="x38"> 3 6 10 </var>
    <var id="x39"> 3 5 9 10 </var>
    <var id="x40"> 3 10..12 </var>
    <var id="x41"> 3 6 11 17 </var>
    <var id="x42"> 3 8 10 11 </var>
    <var id="x43"> 6 8 11 12 </var>
    <var id="x44"> 6 8 10 11 </var>
    <var id="x45"> 3 6 10 17 </var>
    <var id="x46"> 3 10 </var>
    <var id="x47"> 0 1 6 16 </var>
    <var id="x48"> 0 15 </var>
    <var id="x49"> 0 1 3 11 15 </var>
    <var id="x50"> 1 3 6 11 </var>
    <var id="x51"> 1 3 11 16 </var>
    <var id="x52"> 6 11 </var>
    <var id="x53"> 1 3 6 15 16 </var>
    <var id="x54"> 1 7 11 15 </var>
    <var id="x55"> 1..3 15 </var>
    <var id="x56"> 2 8 13 15 </var>
    <var id="x57"> 3 5 </var>
    <var id="x58"> 1..3 5 </var>
    <var id="x59"> 0 1 5 15 </var>
    <var id="x60"> 1..3 8 13 </var>
    <var id="x61"> 2 8 </var>
    <var id="x62"> 8 13 </var>
    <var id="x63"> 6 9 10 17 </var>
    <var id="x64"> 4 6 9 10 17 </var>
    <var id="x65"> 1 6 7 9 </var>
    <var id="x66"> 1 6 10 16 17 </var>
    <var id="x67"> 4 6 9 10 16 </var>
    <var id="x68"> 1 7 10 16 </var>
    <var id="x69"> 1 4 6 17 </var>
    <var as="x66" id="x70"/>
    <var id="x71"> 5 10 12 17 </var>
    <var id="x72"> 1 2 14 15 </var>
    <var id="x73"> 1 2 10 17 </var>
    <var id="x74"> 5 10 </var>
    <var id="x75"> 5 10 12 15 17 </var>
    <var id="x76"> 2 12 14 </var>
    <var id="x77"> 1 17 </var>
    <var id="x78"> 1 5 10 12 15 </var>
    <var id="x79"> 4 6 9 10 </var>
    <var id="x80"> 6 8 10 </var>
    <var id="x81"> 4 6 9..11 </var>
    <var id="x82"> 8 10 11 </var>
    <var id="x83"> 4 6 8 9 11 14 </var>
    <var id="x84"> 4 6 8 10 11 14 </var>
    <var id="x85"> 8 10 11 </var>
    <var id="x86"> 0 10 11 15 17 </var>
    <var id="x87"> 10 15 </var>
    <var id="x88"> 0 1 10 17 </var>
    <var id="x89"> 1 5 10 12 </var>
    <var id="x90"> 0 5 10 12 15 17 </var>
    <var id="x91"> 0 1 10..12 15 </var>
    <var id="x92"> 0 1 5 12 15 </var>
    <var id="x93"> 0 1 5 10 </var>
    <var id="x94"> 5 9 12 </var>
    <var id="x95"> 0..2 16 </var>
    <var id="x96"> 1 5 12 16 </var>
    <var id="x97"> 0 1 9 11 12 </var>
    <var id="x98"> 1 2 5 11 </var>
    <var id="x99"> 1 2 16 </var>
    <var id="x100"> 0..2 5 9 </var>
    <var id="x101"> 1 5 11 12 </var>
    <var id="x102"> 6 9..11 15 </var>
    <var id="x103"> 2 6 9 15 </var>
    <var id="x104"> 2 6 10 13 15 16 </var>
    <var id="x105"> 6 9..11 16 </var>
    <var id="x106"> 10 13 16 </var>
    <var id="x107"> 9 10 15 </var>
    <var id="x108"> 2 10 11 13 16 </var>
    <var id="x109"> 6 10 11 13 </var>
    <var id="x110"> 6 8..11 </var>
    <var id="x111"> 3..6 9 10 </var>
    <var id="x112"> 3 6 9 </var>
    <var id="x113"> 5 8 10 </var>
    <var id="x114"> 3..6 11 </var>
    <var id="x115"> 4 9 11 </var>
    <var id="x116"> 3 5 9 10 </var>
    <var id="x117"> 5 8 10 11 </var>
    <var id="x118"> 6 10 </var>
    <var id="x119"> 3 6 10 </var>
    <var id="x120"> 2 6 10 13 16 </var>
    <var id="x121"> 7 </var>
    <var id="x122"> 2 3 10 13 16 </var>
    <var id="x123"> 6 7 10 13 </var>
    <var id="x124"> 16 </var>
    <var id="x125"> 0 6 10 17 </var>
    <var id="x126"> 6 10 12 17 </var>
    <var id="x127"> 2 6 10 16 </var>
    <var id="x128"> 1 2 6 17 </var>
    <var id="x129"> 0 1 12 </var>
    <var id="x130"> 1 2 10 16 </var>
    <var id="x131"> 0 1 16 17 </var>
    <var id="x132"> 0..2 10 </var>
    <var id="x133"> 8 13 16 </var>
    <var id="x134"> 1 8 16 </var>
    <var id="x135"> 1 5 7 8 13 16 </var>
    <var id="x136"> 1 9 11 </var>
    <var id="x137"> 1 5 11 </var>
    <var id="x138"> 7 8 11 13 </var>
    <var id="x139"> 1 9 11 16 </var>
    <var id="x140"> 1 5 9 13 </var>
  </variables>
  <constraints>
    <group>
      <allDifferent> %... </allDifferent>
      <args> x0 x1 x2 x3 x4 x5 x6 x7 </args>
      <args> x8 x9 x10 x11 x12 x13 x14 x15 </args>
      <args> x16 x17 x18 x19 x20 x21 x22 x23 </args>
      <args> x24 x25 x26 x27 x28 x29 x30 x31 </args>
      <args> x32 x33 x34 x35 x36 x37 x38 x39 </args>
      <args> x40 x41 x42 x43 x44 x45 x46 </args>
      <args> x47 x48 x49 x50 x51 x52 x53 x54 </args>
      <args> x55 x56 x57 x58 x59 x60 x61 x62 </args>
      <args> x63 x64 x65 x66 x67 x68 x69 x70 </args>
      <args> x71 x72 x73 x74 x75 x76 x77 x78 </args>
      <args> x79 x80 x81 x82 x83 x84 x85 </args>
      <args> x86 x87 x88 x89 x90 x91 x92 x93 </args>
      <args> x94 x95 x96 x97 x98 x99 x100 x101 </args>
      <args> x102 x103 x104 x105 x106 x107 x108 x109 </args>
      <args> x110 x111 x112 x113 x114 x115 x116 x117 </args>
      <args> x118 x119 x120 x121 x122 x123 x124 </args>
      <args> x125 x126 x127 x128 x129 x130 x131 x132 </args>
      <args> x133 x134 x135 x136 x137 x138 x139 x140 </args>
      <args> x8 x16 x63 x86 x102 x110 x118 x125 </args>
      <args> x24 x64 x71 x79 x94 x111 x119 x126 </args>
      <args> x0 x9 x32 x55 x65 x72 x103 x112 </args>
      <args> x33 x56 x87 x104 x120 x127 x133 </args>
      <args> x34 x47 x66 x73 x80 x88 x95 x134 </args>
      <args> x10 x25 x35 x57 x67 x74 x81 x105 </args>
      <args> x1 x11 x68 x89 x96 x106 x113 x135 </args>
      <args> x12 x17 x26 x36 x48 x75 x90 x107 </args>
      <args> x2 x13 x18 x40 x49 x91 x97 x136 </args>
      <args> x41 x50 x58 x69 x98 x114 x128 x137 </args>
      <args> x3 x19 x27 x59 x92 x121 x129 </args>
      <args> x4 x42 x51 x60 x82 x108 x122 x130 </args>
      <args> x20 x28 x37 x43 x52 x61 x76 x83 </args>
      <args> x21 x29 x44 x62 x84 x109 x123 x138 </args>
      <args> x14 x30 x77 x115 x124 x131 x139 </args>
      <args> x5 x22 x31 x38 x45 x53 x70 x99 </args>
      <args> x6 x39 x46 x93 x100 x116 x132 x140 </args>
      <args> x7 x15 x23 x54 x78 x85 x101 x117 </args>
    </group>
  </constraints>
</instance>

